10  5
 1  8  3  4  2 12  0 10  4 11  12 160  10
 1  9  4  8  2 12  0  3  3 11   0 161  10
 3  6  4  5  2 11  1  7  0  6   8 155   5
 0 10  3  6  2 15  4  8  1  8   1 160  10
 4 10  1 11  2 12  0  7  3 11   9 156  10
 4  6  3  9  2 10  0  3  1  7  15 154  10
 3 11  0  4  2 13  4  6  1  9  10 152   5
 0  8  3  3  2 11  4 10  1  7   2 157  10
 3  9  0  5  2 10  1 11  4 11   7 157   5
 0  4  3  6  2 13  1  5  4  4   2 158   5
